\ This file has been generated by DOcplex
\ ENCODING=ISO-8859-1
\Problem name: Qrandom25042_6.lp

Minimize
 obj: - 7116 x0 - 3558 x1 - 1779 x2 - 7100 x3 - 3550 x4 - 1775 x5 + [ 4064 x0^2
      + 4064 x0*x1 + 2032 x0*x2 + 8128 x0*x3 + 4064 x0*x4 + 2032 x0*x5
      + 1016 x1^2 + 1016 x1*x2 + 4064 x1*x3 + 2032 x1*x4 + 1016 x1*x5 + 254 x2^2
      + 2032 x2*x3 + 1016 x2*x4 + 508 x2*x5 + 4128 x3^2 + 4128 x3*x4
      + 2064 x3*x5 + 1032 x4^2 + 1032 x4*x5 + 258 x5^2 ]/2 + 6223
Subject To

Bounds
 0 <= x0 <= 1
 0 <= x1 <= 1
 0 <= x2 <= 1
 0 <= x3 <= 1
 0 <= x4 <= 1
 0 <= x5 <= 1

Binaries
 x0 x1 x2 x3 x4 x5
End
